100
32
2
17
8
7
9
26
20
18
26
7
8
17
17
32
32
29
26
12
9
2
3
22
31
24
26
27
12
15
11
5
8
18
2
1
1
2
6
17
17
5
20
1
5
7
7
18
1
3
22
4
17
1
1
2
1
4
16
2
2
3
4
1
3
3
8
1
1
7
1
1
5
2
17
21
18
2
8
5
6
17
3
2
1
4
18
1
2
14
4
3
3
1
1
4
4
3
2
7
4
4